c Created with the Wolfram Language : www.wolfram.com
c 
p edge 100 268
e 1 4
e 3 5
e 3 6
e 6 12
e 10 12
e 1 13
e 5 13
e 12 15
e 5 16
e 13 16
e 5 20
e 8 20
e 15 20
e 19 21
e 20 21
e 3 23
e 15 23
e 17 23
e 22 25
e 23 25
e 24 25
e 15 27
e 17 29
e 1 30
e 18 30
e 25 31
e 21 32
e 6 33
e 26 33
e 28 33
e 32 33
e 8 35
e 23 35
e 24 35
e 32 35
e 10 36
e 14 36
e 22 36
e 24 36
e 11 37
e 14 37
e 37 39
e 35 40
e 39 40
e 14 43
e 16 43
e 11 44
e 17 44
e 35 44
e 31 45
e 41 45
e 5 46
e 6 46
e 18 46
e 37 46
e 42 46
e 45 47
e 11 48
e 16 48
e 25 48
e 30 48
e 21 49
e 32 49
e 21 50
e 34 50
e 40 50
e 21 51
e 22 51
e 3 52
e 9 52
e 19 52
e 1 53
e 25 53
e 31 53
e 35 54
e 47 54
e 14 55
e 23 55
e 53 55
e 1 56
e 2 56
e 18 56
e 20 56
e 43 56
e 52 56
e 19 57
e 21 57
e 47 57
e 28 58
e 35 58
e 44 58
e 37 59
e 46 59
e 19 60
e 21 60
e 35 60
e 37 60
e 41 60
e 50 60
e 6 61
e 8 61
e 32 61
e 49 61
e 50 61
e 5 62
e 8 62
e 39 62
e 55 62
e 58 62
e 11 63
e 40 63
e 61 63
e 15 64
e 40 64
e 50 64
e 60 65
e 61 65
e 35 66
e 47 66
e 50 66
e 7 67
e 31 67
e 64 67
e 24 68
e 44 68
e 4 69
e 5 69
e 43 69
e 68 69
e 12 70
e 14 70
e 25 70
e 35 70
e 39 70
e 40 70
e 3 71
e 21 71
e 24 72
e 9 73
e 24 73
e 39 73
e 66 73
e 32 74
e 55 74
e 63 74
e 23 75
e 37 75
e 60 75
e 36 76
e 51 76
e 43 77
e 49 77
e 54 77
e 64 77
e 5 78
e 15 78
e 21 78
e 27 78
e 29 78
e 34 78
e 54 78
e 65 78
e 34 79
e 38 79
e 40 79
e 74 79
e 16 80
e 27 80
e 28 80
e 31 80
e 41 80
e 45 80
e 63 80
e 71 80
e 13 81
e 23 81
e 50 81
e 5 82
e 12 82
e 25 82
e 30 82
e 46 82
e 67 82
e 22 83
e 25 83
e 39 83
e 41 83
e 61 83
e 70 83
e 71 83
e 77 83
e 1 84
e 5 84
e 51 84
e 4 85
e 35 85
e 32 86
e 33 86
e 54 86
e 80 86
e 83 86
e 67 87
e 73 87
e 4 88
e 65 88
e 67 88
e 82 88
e 23 89
e 26 89
e 52 89
e 73 89
e 15 90
e 36 90
e 48 90
e 58 90
e 4 91
e 21 91
e 32 91
e 54 91
e 81 91
e 85 91
e 9 92
e 11 92
e 12 92
e 27 92
e 81 92
e 87 92
e 21 93
e 46 93
e 63 93
e 66 93
e 70 93
e 91 93
e 12 94
e 36 94
e 44 94
e 73 94
e 77 94
e 82 94
e 83 94
e 12 95
e 20 95
e 39 95
e 22 96
e 23 96
e 34 96
e 55 96
e 77 96
e 6 97
e 30 97
e 41 97
e 42 97
e 53 97
e 64 97
e 2 98
e 18 98
e 50 98
e 54 98
e 83 98
e 33 99
e 36 99
e 42 99
e 52 99
e 35 100
e 48 100
e 71 100
e 86 100
e 98 100
